\ Model matlab
\ LP format - for model browsing. Use MPS format to capture full model detail.
Minimize
 
Subject To
 R0: - C0 = 0
 R1: C0 - C1 = 0
 R2: C1 - C2 = 0
 R3: C2 - C3 = 0
 R4: C3 = 0
 R5: C4 - C8 + 2.478819099999999 C12 + 2.478819099999999 C13
   - 2.478819099999999 C14 - 2.478819099999999 C15 <= 1e-05
 R6: C5 - C9 + 2.478819099999999 C15 + 2.478819099999999 C16
   + 2.478819099999999 C17 - 2.478819099999999 C18 - 2.478819099999999 C19
   - 2.478819099999999 C20 <= 1e-05
 R7: C6 - C10 + 2.478819099999999 C18 + 2.478819099999999 C20
   - 2.478819099999999 C21 - 2.478819099999999 C22 <= 1e-05
 R8: C7 - C11 + 2.478819099999999 C18 + 2.478819099999999 C21
   - 2.478819099999999 C23 - 2.478819099999999 C24 <= 1e-05
 R9: - C4 + C8 - 2.478819099999999 C12 - 2.478819099999999 C13
   + 2.478819099999999 C14 + 2.478819099999999 C15 <= 1e-05
 R10: - C5 + C9 - 2.478819099999999 C15 - 2.478819099999999 C16
   - 2.478819099999999 C17 + 2.478819099999999 C18 + 2.478819099999999 C19
   + 2.478819099999999 C20 <= 1e-05
 R11: - C6 + C10 - 2.478819099999999 C18 - 2.478819099999999 C20
   + 2.478819099999999 C21 + 2.478819099999999 C22 <= 1e-05
 R12: - C7 + C11 - 2.478819099999999 C18 - 2.478819099999999 C21
   + 2.478819099999999 C23 + 2.478819099999999 C24 <= 1e-05
 R13: - C0 + 1e+12 C25 <= 1e+12
 R14: - C1 + 1e+12 C26 <= 1e+12
 R15: - C2 + 1e+12 C27 <= 1e+12
 R16: - C3 + 1e+12 C28 <= 1e+12
 R17: C0 - 1e+12 C25 <= 0
 R18: C1 - 1e+12 C26 <= 0
 R19: C2 - 1e+12 C27 <= 0
 R20: C3 - 1e+12 C28 <= 0
 R21: C4 + 1e+12 C25 <= 1e+12
 R22: C5 + 1e+12 C26 <= 1e+12
 R23: C6 + 1e+12 C27 <= 1e+12
 R24: C7 + 1e+12 C28 <= 1e+12
 R25: - C4 - 1e+12 C25 <= -1e-06
 R26: - C5 - 1e+12 C26 <= -1e-06
 R27: - C6 - 1e+12 C27 <= -1e-06
 R28: - C7 - 1e+12 C28 <= -1e-06
Bounds
 0.06368 <= C0 <= 0.09552
 0.06368 <= C1 <= 0.09552
 0.06368 <= C2 <= 0.09552
 0.06368 <= C3 <= 0.09552
 -100000 <= C4 <= 100000
 -100000 <= C5 <= 100000
 -100000 <= C6 <= 100000
 -100000 <= C7 <= 100000
 -235.17864428 <= C8 <= -211.660779852
 -342.18743584 <= C9 <= -307.9686922560001
 -28.5052874048 <= C10 <= -25.65475866432
 -3.0668153068 <= C11 <= -2.76013377612
 C12 = 0
 C13 = 0
 C14 = 0
 C15 = 0
 C16 = 0
 C17 = 0
 C18 = 0
 C19 = 0
 C20 = 0
 C21 = 0
 C22 = 0
 C23 = 0
 C24 = 0
Binaries
 C25 C26 C27 C28
End
